NAME : in_house_7_14
TYPE : TSP
DIMENSION : 7
EDGE_WEIGHT_TYPE : EXPLICIT
EDGE_WEIGHT_FORMAT : UPPER_ROW
COMMENT : INVERSION_SHIFT=4
EDGE_WEIGHT_SECTION
12
2
16
1
28
27
15
28
24
12
43
44
38
30
41
25
7
46
16
43
39
